Fe
 1.0000000000000000
    21.0636429212103984    0.0000000000000000    0.0000000000000000
   -10.5318214607350669   37.9376575743892843    0.0000000000000000
     0.0000000000000000   -0.0000000000000000   48.4036905757718969
 Fe 
 360
Selective dynamics
Cartesian
 -1.1702258553732396 10.8420873749908679 15.1326229537989825   F   F   F
  3.5106071534917778  9.2085657486121661 15.3978686223370911   F   F   F
  3.5106071534917782 11.6588483567009078 14.9999999999999982   F   F   F
  1.1702258558276089 10.0253265670854983 15.2652458174899657   F   F   F
  2.3403812981185368 11.1669456655321202 17.1332698375139607   F   F   F
 -0.0000000000865783  9.5334240391534184 17.3985155060520675   F   F   F
 -0.0000000000865783 11.9837066472421618 17.0006468837149818   F   F   F
 -2.3403812977507474 10.3501848576267523 17.2658927012049439   F   F   F
 -1.1702258554598195 11.4918039560733742 19.1339167212289389   F   F   F
  3.5106071534052012  9.8582823296946707 19.3991623897670493   F   F   F
  3.5106071534052017 12.3085649377834123 19.0012937674299600   F   F   F
  1.1702258557410319 10.6750431481680064 19.2665395849199221   F   F   F
  2.3403812980319620 11.8166622466146283 21.1345636049439207   F   F   F
 -0.0000000001731551 10.1831406202359247 21.3998092734820275   F   F   F
 -0.0000000001731540 12.6334232283246664 21.0019406511449382   F   F   F
 -2.3403812978373226 10.9999014387092604 21.2671864686349004   F   F   F
 -1.1702258555463900 12.1415205371558805 23.1352104886588990   T   T   T
  3.5106071533186238 10.5079989107771787 23.4004561571970093   T   T   T
 -0.0000000001731559  0.3123956607361585 23.0025875348599165   T   T   T
  1.1702258556544558 11.3247597292505109 23.2678333523498786   T   T   T
  2.3403812979453860 12.4663788276971328 25.1358573723738772   T   T   T
 -0.0000000002597316 10.8328572013184328 25.4011030409119840   T   T   T
  3.5106071533186225  0.6372539512774112 25.0032344185748947   T   T   T
 -2.3403812979239023 11.6496180197917649 25.2684802360648604   T   T   T
  2.3403812979453820  0.1453512601086278 27.1365042560888590   T   T   T
  3.5106071532320433 11.1577154918596850 27.4017499246269658   T   T   T
 -0.0000000002597325  0.9621122418186639 27.0038813022898694   T   T   T
  1.1702258555678720 11.9744763103330172 27.2691271197798386   T   T   T
  5.8509884514371615  0.4702095506498777 29.1371511398038372   T   T   T
 -0.0000000003463056 11.4825737824009373 29.4023968083419405   T   T   T
  3.5106071532320482  1.2869705323599194 29.0045281860048512   T   T   T
 -2.3403812980104854 12.2993346008742730 29.2697740034948204   T   T   T
  2.3403812978588054  0.7950678411911332 31.1377980235188119   T   T   T
  3.5106071531454708 11.8074320729421895 31.4030436920569223   T   T   T
 -0.0000000003463161  1.6118288229011719 31.0051750697198329   T   T   T
  1.1702258554813010 12.6241928914155270 31.2704208872097986   T   T   T
  5.8509884513505739  1.1199261317323859 33.1384449072337901   T   T   T
 -0.0000000004328824 12.1322903634834436 33.4036905757718969   T   T   T
  3.5106071531454650  1.9366871134424248 33.0058219534348112   T   T   T
  1.1702258554813061  0.3031653238270167 33.2710677709247804   T   T   T
 -4.6808330089515957 23.4879732331206306 15.1326229537989825   F   F   F
 -0.0000000000865769 21.8544516067419217 15.3978686223370911   F   F   F
 -0.0000000000865789 24.3047342148306633 14.9999999999999982   F   F   F
 -2.3403812977507470 22.6712124252152556 15.2652458174899657   F   F   F
 -1.1702258554598186 23.8128315236618811 17.1332698375139607   F   F   F
 -3.5106071536649335 22.1793098972831757 17.3985155060520675   F   F   F
 -3.5106071536649339 24.6295925053719245 17.0006468837149818   F   F   F
 -5.8509884513291031 22.9960707157565096 17.2658927012049439   F   F   F
 -4.6808330090381753 24.1376898142031351 19.1339167212289389   F   F   F
 -0.0000000001731552 22.5041681878244333 19.3991623897670493   F   F   F
 -0.0000000001731536 24.9544507959131714 19.0012937674299600   F   F   F
 -2.3403812978373235 23.3209290062977637 19.2665395849199221   F   F   F
 -1.1702258555463934 24.4625481047443891 21.1345636049439207   F   F   F
 -3.5106071537515104 22.8290264783656802 21.3998092734820275   F   F   F
 -3.5106071537515091 25.2793090864544219 21.0019406511449382   F   F   F
 -5.8509884514156782 23.6457872968390177 21.2671864686349004   F   F   F
 -4.6808330091247461 24.7874063952856432 23.1352104886588990   T   T   T
 -0.0000000002597317 23.1538847689069414 23.4004561571970093   T   T   T
 -3.5106071537515113 12.9582815188659186 23.0025875348599165   T   T   T
 -2.3403812979239009 23.9706455873802682 23.2678333523498786   T   T   T
 -1.1702258556329705 25.1122646858268936 25.1358573723738772   T   T   T
 -3.5106071538380879 23.4787430594481883 25.4011030409119840   T   T   T
 -0.0000000002597330 13.2831398094071726 25.0032344185748947   T   T   T
 -5.8509884515022579 24.2955038779215222 25.2684802360648604   T   T   T
 -1.1702258556329737 12.7912371182383886 27.1365042560888590   T   T   T
 -0.0000000003463123 23.8036013499894423 27.4017499246269658   T   T   T
 -3.5106071538380883 13.6079980999484249 27.0038813022898694   T   T   T
 -2.3403812980104837 24.6203621684627763 27.2691271197798386   T   T   T
  2.3403812978588063 13.1160954087796391 29.1371511398038372   T   T   T
 -3.5106071539246608 24.1284596405306964 29.4023968083419405   T   T   T
 -0.0000000003463073 13.9328563904896807 29.0045281860048512   T   T   T
 -5.8509884515888411 24.9452204590040303 29.2697740034948204   T   T   T
 -1.1702258557195504 13.4409536993208931 31.1377980235188119   T   T   T
 -0.0000000004328867 24.4533179310719468 31.4030436920569223   T   T   T
 -3.5106071539246715 14.2577146810309330 31.0051750697198329   T   T   T
 -2.3403812980970549 25.2700787495452843 31.2704208872097986   T   T   T
  2.3403812977722183 13.7658119898621472 33.1384449072337901   T   T   T
 -3.5106071540112378 24.7781762216132009 33.4036905757718969   T   T   T
 -0.0000000004328902 14.5825729715721852 33.0058219534348112   T   T   T
 -2.3403812980970500 12.9490511819567775 33.2710677709247804   T   T   T
 -8.1914401625299504 36.1338590912503932 15.1326229537989825   F   F   F
 -3.5106071536649330 34.5003374648716914 15.3978686223370911   F   F   F
 -3.5106071536649335 36.9506200729604330 14.9999999999999982   F   F   F
 -5.8509884513291039 35.3170982833450182 15.2652458174899657   F   F   F
 -4.6808330090381745 36.4587173817916437 17.1332698375139607   F   F   F
 -7.0212143072432900 34.8251957554129419 17.3985155060520675   F   F   F
 -7.0212143072432891 37.2754783635016835 17.0006468837149818   F   F   F
 -9.3615956049074587 35.6419565738862758 17.2658927012049439   F   F   F
 -8.1914401626165301 36.7835756723328942 19.1339167212289389   F   F   F
 -3.5106071537515118 35.1500540459541924 19.3991623897670493   F   F   F
 -3.5106071537515104 37.6003366540429340 19.0012937674299600   F   F   F
 -5.8509884514156791 35.9668148644275263 19.2665395849199221   F   F   F
 -4.6808330091247496 37.1084339628741517 21.1345636049439207   F   F   F
 -7.0212143073298670 35.4749123364954499 21.3998092734820275   F   F   F
 -7.0212143073298661 37.9251949445841916 21.0019406511449382   F   F   F
 -9.3615956049940330 36.2916731549687839 21.2671864686349004   F   F   F
 -8.1914401627031026 37.4332922534154022 23.1352104886588990   T   T   T
 -3.5106071538380874 35.7997706270367004 23.4004561571970093   T   T   T
 -7.0212143073298670 25.6041673769956759 23.0025875348599165   T   T   T
 -5.8509884515022561 36.6165314455100344 23.2678333523498786   T   T   T
 -4.6808330092113275 37.7581505439566527 25.1358573723738772   T   T   T
 -7.0212143074164439 36.1246289175779509 25.4011030409119840   T   T   T
 -3.5106071538380883 25.9290256675369299 25.0032344185748947   T   T   T
 -9.3615956050806126 36.9413897360512848 25.2684802360648604   T   T   T
 -4.6808330092113293 25.4371229763681512 27.1365042560888590   T   T   T
 -3.5106071539246675 36.4494872081192085 27.4017499246269658   T   T   T
 -7.0212143074164439 26.2538839580781804 27.0038813022898694   T   T   T
 -5.8509884515888393 37.2662480265925353 27.2691271197798386   T   T   T
 -1.1702258557195493 25.7619812669093982 29.1371511398038372   T   T   T
 -7.0212143075030173 36.7743454986604590 29.4023968083419405   T   T   T
 -3.5106071539246635 26.5787422486194380 29.0045281860048512   T   T   T
 -9.3615956051671958 37.5911063171337929 29.2697740034948204   T   T   T
 -4.6808330092979062 26.0868395574506557 31.1377980235188119   T   T   T
 -3.5106071540112418 37.0992037892017095 31.4030436920569223   T   T   T
 -7.0212143075030271 26.9036005391606885 31.0051750697198329   T   T   T
 -5.8509884516754109 37.9159646076750505 31.2704208872097986   T   T   T
 -1.1702258558061374 26.4116978479919062 33.1384449072337901   T   T   T
 -7.0212143075895934 37.4240620797429671 33.4036905757718969   T   T   T
 -3.5106071540112467 27.2284588297019425 33.0058219534348112   T   T   T
 -5.8509884516754056 25.5949370400865348 33.2710677709247804   T   T   T
  5.8509884516968915 10.8420873749908679 15.1326229537989825   F   F   F
 10.5318214605619129  9.2085657486121661 15.3978686223370911   F   F   F
 10.5318214605619094 11.6588483567009078 14.9999999999999982   F   F   F
  8.1914401628977416 10.0253265670854983 15.2652458174899657   F   F   F
  9.3615956051886720 11.1669456655321202 17.1332698375139607   F   F   F
  7.0212143069835529  9.5334240391534184 17.3985155060520675   F   F   F
  7.0212143069835538 11.9837066472421618 17.0006468837149818   F   F   F
  4.6808330093193868 10.3501848576267523 17.2658927012049439   F   F   F
  5.8509884516103146 11.4918039560733742 19.1339167212289389   F   F   F
 10.5318214604753315  9.8582823296946707 19.3991623897670493   F   F   F
 10.5318214604753333 12.3085649377834123 19.0012937674299600   F   F   F
  8.1914401628111637 10.6750431481680064 19.2665395849199221   F   F   F
  9.3615956051020941 11.8166622466146283 21.1345636049439207   F   F   F
  7.0212143068969768 10.1831406202359247 21.3998092734820275   F   F   F
  7.0212143068969786 12.6334232283246664 21.0019406511449382   F   F   F
  4.6808330092328099 10.9999014387092604 21.2671864686349004   F   F   F
  5.8509884515237411 12.1415205371558805 23.1352104886588990   T   T   T
 10.5318214603887537 10.5079989107771787 23.4004561571970093   T   T   T
  7.0212143068969768  0.3123956607361585 23.0025875348599165   T   T   T
  8.1914401627245876 11.3247597292505109 23.2678333523498786   T   T   T
  9.3615956050155180 12.4663788276971328 25.1358573723738772   T   T   T
  7.0212143068103989 10.8328572013184328 25.4011030409119840   T   T   T
 10.5318214603887572  0.6372539512774112 25.0032344185748947   T   T   T
  4.6808330091462302 11.6496180197917649 25.2684802360648604   T   T   T
  9.3615956050155162  0.1453512601086278 27.1365042560888590   T   T   T
 10.5318214603021758 11.1577154918596850 27.4017499246269658   T   T   T
  7.0212143068103998  0.9621122418186639 27.0038813022898694   T   T   T
  8.1914401626380062 11.9744763103330172 27.2691271197798386   T   T   T
 12.8722027585072958  0.4702095506498777 29.1371511398038372   T   T   T
  7.0212143067238264 11.4825737824009373 29.4023968083419405   T   T   T
 10.5318214603021811  1.2869705323599194 29.0045281860048512   T   T   T
  4.6808330090596479 12.2993346008742730 29.2697740034948204   T   T   T
  9.3615956049289402  0.7950678411911332 31.1377980235188119   T   T   T
 10.5318214602156015 11.8074320729421895 31.4030436920569223   T   T   T
  7.0212143067238166  1.6118288229011719 31.0051750697198329   T   T   T
  8.1914401625514319 12.6241928914155270 31.2704208872097986   T   T   T
 12.8722027584207055  1.1199261317323859 33.1384449072337901   T   T   T
  7.0212143066372494 12.1322903634834436 33.4036905757718969   T   T   T
 10.5318214602155980  1.9366871134424248 33.0058219534348112   T   T   T
  8.1914401625514390  0.3031653238270167 33.2710677709247804   T   T   T
  2.3403812981185355 23.4879732331206306 15.1326229537989825   F   F   F
  7.0212143069835538 21.8544516067419217 15.3978686223370911   F   F   F
  7.0212143069835529 24.3047342148306633 14.9999999999999982   F   F   F
  4.6808330093193860 22.6712124252152556 15.2652458174899657   F   F   F
  5.8509884516103163 23.8128315236618811 17.1332698375139607   F   F   F
  3.5106071534051986 22.1793098972831757 17.3985155060520675   F   F   F
  3.5106071534051981 24.6295925053719245 17.0006468837149818   F   F   F
  1.1702258557410299 22.9960707157565096 17.2658927012049439   F   F   F
  2.3403812980319594 24.1376898142031351 19.1339167212289389   F   F   F
  7.0212143068969768 22.5041681878244333 19.3991623897670493   F   F   F
  7.0212143068969768 24.9544507959131714 19.0012937674299600   F   F   F
  4.6808330092328090 23.3209290062977637 19.2665395849199221   F   F   F
  5.8509884515237394 24.4625481047443891 21.1345636049439207   F   F   F
  3.5106071533186221 22.8290264783656802 21.3998092734820275   F   F   F
  3.5106071533186229 25.2793090864544219 21.0019406511449382   F   F   F
  1.1702258556544551 23.6457872968390177 21.2671864686349004   F   F   F
  2.3403812979453855 24.7874063952856432 23.1352104886588990   T   T   T
  7.0212143068103989 23.1538847689069414 23.4004561571970093   T   T   T
  3.5106071533186216 12.9582815188659186 23.0025875348599165   T   T   T
  4.6808330091462329 23.9706455873802682 23.2678333523498786   T   T   T
  5.8509884514371633 25.1122646858268936 25.1358573723738772   T   T   T
  3.5106071532320446 23.4787430594481883 25.4011030409119840   T   T   T
  7.0212143068103989 13.2831398094071726 25.0032344185748947   T   T   T
  1.1702258555678753 24.2955038779215222 25.2684802360648604   T   T   T
  5.8509884514371606 12.7912371182383886 27.1365042560888590   T   T   T
  7.0212143067238211 23.8036013499894423 27.4017499246269658   T   T   T
  3.5106071532320446 13.6079980999484249 27.0038813022898694   T   T   T
  4.6808330090596515 24.6203621684627763 27.2691271197798386   T   T   T
  9.3615956049289402 13.1160954087796391 29.1371511398038372   T   T   T
  3.5106071531454712 24.1284596405306964 29.4023968083419405   T   T   T
  7.0212143067238246 13.9328563904896807 29.0045281860048512   T   T   T
  1.1702258554812910 24.9452204590040303 29.2697740034948204   T   T   T
  5.8509884513505845 13.4409536993208931 31.1377980235188119   T   T   T
  7.0212143066372468 24.4533179310719468 31.4030436920569223   T   T   T
  3.5106071531454610 14.2577146810309330 31.0051750697198329   T   T   T
  4.6808330089730781 25.2700787495452843 31.2704208872097986   T   T   T
  9.3615956048423499 13.7658119898621472 33.1384449072337901   T   T   T
  3.5106071530588947 24.7781762216132009 33.4036905757718969   T   T   T
  7.0212143066372414 14.5825729715721852 33.0058219534348112   T   T   T
  4.6808330089730816 12.9490511819567775 33.2710677709247804   T   T   T
 -1.1702258554598193 36.1338590912503932 15.1326229537989825   F   F   F
  3.5106071534052021 34.5003374648716914 15.3978686223370911   F   F   F
  3.5106071534051972 36.9506200729604330 14.9999999999999982   F   F   F
  1.1702258557410294 35.3170982833450182 15.2652458174899657   F   F   F
  2.3403812980319603 36.4587173817916437 17.1332698375139607   F   F   F
 -0.0000000001731576 34.8251957554129419 17.3985155060520675   F   F   F
 -0.0000000001731569 37.2754783635016835 17.0006468837149818   F   F   F
 -2.3403812978373262 35.6419565738862758 17.2658927012049439   F   F   F
 -1.1702258555463991 36.7835756723328942 19.1339167212289389   F   F   F
  3.5106071533186198 35.1500540459541924 19.3991623897670493   F   F   F
  3.5106071533186221 37.6003366540429340 19.0012937674299600   F   F   F
  1.1702258556544523 35.9668148644275263 19.2665395849199221   F   F   F
  2.3403812979453833 37.1084339628741517 21.1345636049439207   F   F   F
 -0.0000000002597332 35.4749123364954499 21.3998092734820275   F   F   F
 -0.0000000002597325 37.9251949445841916 21.0019406511449382   F   F   F
 -2.3403812979239009 36.2916731549687839 21.2671864686349004   F   F   F
 -1.1702258556329694 37.4332922534154022 23.1352104886588990   T   T   T
  3.5106071532320442 35.7997706270367004 23.4004561571970093   T   T   T
 -0.0000000002597334 25.6041673769956759 23.0025875348599165   T   T   T
  1.1702258555678766 36.6165314455100344 23.2678333523498786   T   T   T
  2.3403812978588063 37.7581505439566527 25.1358573723738772   T   T   T
 -0.0000000003463100 36.1246289175779509 25.4011030409119840   T   T   T
  3.5106071532320438 25.9290256675369299 25.0032344185748947   T   T   T
 -2.3403812980104801 36.9413897360512848 25.2684802360648604   T   T   T
  2.3403812978588046 25.4371229763681512 27.1365042560888590   T   T   T
  3.5106071531454650 36.4494872081192085 27.4017499246269658   T   T   T
 -0.0000000003463105 26.2538839580781804 27.0038813022898694   T   T   T
  1.1702258554812950 37.2662480265925353 27.2691271197798386   T   T   T
  5.8509884513505845 25.7619812669093982 29.1371511398038372   T   T   T
 -0.0000000004328838 36.7743454986604590 29.4023968083419405   T   T   T
  3.5106071531454699 26.5787422486194380 29.0045281860048512   T   T   T
 -2.3403812980970637 37.5911063171337929 29.2697740034948204   T   T   T
  2.3403812977722285 26.0868395574506557 31.1377980235188119   T   T   T
  3.5106071530588898 37.0992037892017095 31.4030436920569223   T   T   T
 -0.0000000004328941 26.9036005391606885 31.0051750697198329   T   T   T
  1.1702258553947218 37.9159646076750505 31.2704208872097986   T   T   T
  5.8509884512639951 26.4116978479919062 33.1384449072337901   T   T   T
 -0.0000000005194612 37.4240620797429671 33.4036905757718969   T   T   T
  3.5106071530588867 27.2284588297019425 33.0058219534348112   T   T   T
  1.1702258553947271 25.5949370400865348 33.2710677709247804   T   T   T
 12.8722027587670294 10.8420873749908679 15.1326229537989825   F   F   F
 17.5530357676320428  9.2085657486121661 15.3978686223370911   F   F   F
 17.5530357676320428 11.6588483567009078 14.9999999999999982   F   F   F
 15.2126544699678732 10.0253265670854983 15.2652458174899657   F   F   F
 16.3828099122588071 11.1669456655321202 17.1332698375139607   F   F   F
 14.0424286140536889  9.5334240391534184 17.3985155060520675   F   F   F
 14.0424286140536871 11.9837066472421618 17.0006468837149818   F   F   F
 11.7020473163895193 10.3501848576267523 17.2658927012049439   F   F   F
 12.8722027586804444 11.4918039560733742 19.1339167212289389   F   F   F
 17.5530357675454667  9.8582823296946707 19.3991623897670493   F   F   F
 17.5530357675454667 12.3085649377834123 19.0012937674299600   F   F   F
 15.2126544698812971 10.6750431481680064 19.2665395849199221   F   F   F
 16.3828099121722275 11.8166622466146283 21.1345636049439207   F   F   F
 14.0424286139671093 10.1831406202359247 21.3998092734820275   F   F   F
 14.0424286139671164 12.6334232283246664 21.0019406511449382   F   F   F
 11.7020473163029415 10.9999014387092604 21.2671864686349004   F   F   F
 12.8722027585938772 12.1415205371558805 23.1352104886588990   T   T   T
 17.5530357674588906 10.5079989107771787 23.4004561571970093   T   T   T
 14.0424286139671093  0.3123956607361585 23.0025875348599165   T   T   T
 15.2126544697947228 11.3247597292505109 23.2678333523498786   T   T   T
 16.3828099120856479 12.4663788276971328 25.1358573723738772   T   T   T
 14.0424286138805350 10.8328572013184328 25.4011030409119840   T   T   T
 17.5530357674588871  0.6372539512774112 25.0032344185748947   T   T   T
 11.7020473162163636 11.6496180197917649 25.2684802360648604   T   T   T
 16.3828099120856479  0.1453512601086278 27.1365042560888590   T   T   T
 17.5530357673723110 11.1577154918596850 27.4017499246269658   T   T   T
 14.0424286138805332  0.9621122418186639 27.0038813022898694   T   T   T
 15.2126544697081361 11.9744763103330172 27.2691271197798386   T   T   T
 19.8934170655774274  0.4702095506498777 29.1371511398038372   T   T   T
 14.0424286137939607 11.4825737824009373 29.4023968083419405   T   T   T
 17.5530357673723181  1.2869705323599194 29.0045281860048512   T   T   T
 11.7020473161297804 12.2993346008742730 29.2697740034948204   T   T   T
 16.3828099119990718  0.7950678411911332 31.1377980235188119   T   T   T
 17.5530357672857349 11.8074320729421895 31.4030436920569223   T   T   T
 14.0424286137939482  1.6118288229011719 31.0051750697198329   T   T   T
 15.2126544696215635 12.6241928914155270 31.2704208872097986   T   T   T
 19.8934170654908407  1.1199261317323859 33.1384449072337901   T   T   T
 14.0424286137073810 12.1322903634834436 33.4036905757718969   T   T   T
 17.5530357672857313  1.9366871134424248 33.0058219534348112   T   T   T
 15.2126544696215724  0.3031653238270167 33.2710677709247804   T   T   T
  9.3615956051886720 23.4879732331206306 15.1326229537989825   F   F   F
 14.0424286140536889 21.8544516067419217 15.3978686223370911   F   F   F
 14.0424286140536871 24.3047342148306633 14.9999999999999982   F   F   F
 11.7020473163895176 22.6712124252152556 15.2652458174899657   F   F   F
 12.8722027586804444 23.8128315236618811 17.1332698375139607   F   F   F
 10.5318214604753333 22.1793098972831757 17.3985155060520675   F   F   F
 10.5318214604753280 24.6295925053719245 17.0006468837149818   F   F   F
  8.1914401628111637 22.9960707157565096 17.2658927012049439   F   F   F
  9.3615956051020888 24.1376898142031351 19.1339167212289389   F   F   F
 14.0424286139671093 22.5041681878244333 19.3991623897670493   F   F   F
 14.0424286139671128 24.9544507959131714 19.0012937674299600   F   F   F
 11.7020473163029415 23.3209290062977637 19.2665395849199221   F   F   F
 12.8722027585938683 24.4625481047443891 21.1345636049439207   F   F   F
 10.5318214603887554 22.8290264783656802 21.3998092734820275   F   F   F
 10.5318214603887537 25.2793090864544219 21.0019406511449382   F   F   F
  8.1914401627245876 23.6457872968390177 21.2671864686349004   F   F   F
  9.3615956050155198 24.7874063952856432 23.1352104886588990   T   T   T
 14.0424286138805350 23.1538847689069414 23.4004561571970093   T   T   T
 10.5318214603887537 12.9582815188659186 23.0025875348599165   T   T   T
 11.7020473162163636 23.9706455873802682 23.2678333523498786   T   T   T
 12.8722027585072976 25.1122646858268936 25.1358573723738772   T   T   T
 10.5318214603021758 23.4787430594481883 25.4011030409119840   T   T   T
 14.0424286138805297 13.2831398094071726 25.0032344185748947   T   T   T
  8.1914401626380045 24.2955038779215222 25.2684802360648604   T   T   T
 12.8722027585072905 12.7912371182383886 27.1365042560888590   T   T   T
 14.0424286137939571 23.8036013499894423 27.4017499246269658   T   T   T
 10.5318214603021776 13.6079980999484249 27.0038813022898694   T   T   T
 11.7020473161297822 24.6203621684627763 27.2691271197798386   T   T   T
 16.3828099119990718 13.1160954087796391 29.1371511398038372   T   T   T
 10.5318214602156051 24.1284596405306964 29.4023968083419405   T   T   T
 14.0424286137939625 13.9328563904896807 29.0045281860048512   T   T   T
  8.1914401625514248 24.9452204590040303 29.2697740034948204   T   T   T
 12.8722027584207126 13.4409536993208931 31.1377980235188119   T   T   T
 14.0424286137073810 24.4533179310719468 31.4030436920569223   T   T   T
 10.5318214602155926 14.2577146810309330 31.0051750697198329   T   T   T
 11.7020473160432097 25.2700787495452843 31.2704208872097986   T   T   T
 16.3828099119124850 13.7658119898621472 33.1384449072337901   T   T   T
 10.5318214601290272 24.7781762216132009 33.4036905757718969   T   T   T
 14.0424286137073722 14.5825729715721852 33.0058219534348112   T   T   T
 11.7020473160432168 12.9490511819567775 33.2710677709247804   T   T   T
  5.8509884516103119 36.1338590912503932 15.1326229537989825   F   F   F
 10.5318214604753315 34.5003374648716914 15.3978686223370911   F   F   F
 10.5318214604753315 36.9506200729604330 14.9999999999999982   F   F   F
  8.1914401628111637 35.3170982833450182 15.2652458174899657   F   F   F
  9.3615956051020888 36.4587173817916437 17.1332698375139607   F   F   F
  7.0212143068969741 34.8251957554129419 17.3985155060520675   F   F   F
  7.0212143068969768 37.2754783635016835 17.0006468837149818   F   F   F
  4.6808330092328081 35.6419565738862758 17.2658927012049439   F   F   F
  5.8509884515237340 36.7835756723328942 19.1339167212289389   F   F   F
 10.5318214603887554 35.1500540459541924 19.3991623897670493   F   F   F
 10.5318214603887572 37.6003366540429340 19.0012937674299600   F   F   F
  8.1914401627245876 35.9668148644275263 19.2665395849199221   F   F   F
  9.3615956050155162 37.1084339628741517 21.1345636049439207   F   F   F
  7.0212143068103980 35.4749123364954499 21.3998092734820275   F   F   F
  7.0212143068104043 37.9251949445841916 21.0019406511449382   F   F   F
  4.6808330091462311 36.2916731549687839 21.2671864686349004   F   F   F
  5.8509884514371624 37.4332922534154022 23.1352104886588990   T   T   T
 10.5318214603021794 35.7997706270367004 23.4004561571970093   T   T   T
  7.0212143068103989 25.6041673769956759 23.0025875348599165   T   T   T
  8.1914401626380116 36.6165314455100344 23.2678333523498786   T   T   T
  9.3615956049289437 37.7581505439566527 25.1358573723738772   T   T   T
  7.0212143067238220 36.1246289175779509 25.4011030409119840   T   T   T
 10.5318214603021758 25.9290256675369299 25.0032344185748947   T   T   T
  4.6808330090596506 36.9413897360512848 25.2684802360648604   T   T   T
  9.3615956049289384 25.4371229763681512 27.1365042560888590   T   T   T
 10.5318214602155997 36.4494872081192085 27.4017499246269658   T   T   T
  7.0212143067238229 26.2538839580781804 27.0038813022898694   T   T   T
  8.1914401625514266 37.2662480265925353 27.2691271197798386   T   T   T
 12.8722027584207162 25.7619812669093982 29.1371511398038372   T   T   T
  7.0212143066372494 36.7743454986604590 29.4023968083419405   T   T   T
 10.5318214602155997 26.5787422486194380 29.0045281860048512   T   T   T
  4.6808330089730692 37.5911063171337929 29.2697740034948204   T   T   T
  9.3615956048423605 26.0868395574506557 31.1377980235188119   T   T   T
 10.5318214601290272 37.0992037892017095 31.4030436920569223   T   T   T
  7.0212143066372388 26.9036005391606885 31.0051750697198329   T   T   T
  8.1914401624648541 37.9159646076750505 31.2704208872097986   T   T   T
 12.8722027583341294 26.4116978479919062 33.1384449072337901   T   T   T
  7.0212143065506707 37.4240620797429671 33.4036905757718969   T   T   T
 10.5318214601290183 27.2284588297019425 33.0058219534348112   T   T   T
  8.1914401624648594 25.5949370400865348 33.2710677709247804   T   T   T
