Pt
 1.0000000000000000
    28.8344893254453609    0.0000000000000000    0.0000000000000000
   -14.4172446627075619   37.7262252989301885    0.0000000000000000
     0.0000000000000000   -0.0000000000000000   56.2089558702875536
 Pt 
 720
Selective dynamics
Cartesian
 -1.6019482036472967 11.6000464166314359 15.0000001614876908   F   F   F
  4.8057482209126006  9.3904381067916116 15.4998394020163044   F   F   F
 -4.0048221700104376 11.9061360718401268 16.3531114740214569   F   F   F
  2.4028741111193535  9.6965277801870151 16.8529507949469455   F   F   F
  3.2038000175881671 11.6000463801010287 15.0000000000000000   F   F   F
 -0.0000000002029721  9.3904381066504676 15.4998394013923591   F   F   F
  0.8009257639148104 11.9061360718551157 16.3531114740877292   F   F   F
 -2.4028741104462212  9.6965277802178420 16.8529507950832098   F   F   F
  3.2038000172653027 12.2122257634838967 17.7062229476215087   F   F   F
  0.0000000000100782 10.0026174536440724 18.2060621881501241   F   F   F
  0.8009260509021610 12.5183154186925858 19.0593342601552749   F   F   F
 -2.4028741097831676 10.3087071270394741 19.5591735810807599   F   F   F
 -1.6019482033143555 12.2122257269534877 17.7062227861338144   F   F   F
  4.8057482207096269 10.0026174535029231 18.2060621875261752   F   F   F
 -4.0048224569877089 12.5183154187075729 19.0593342602215472   F   F   F
  2.4028741104663807 10.3087071270703010 19.5591735812170313   F   F   F
  3.2038000172653058  0.2489966773596246 20.4124457337553231   F   F   F
  4.8057482209226796 10.6147968004965279 20.9122849742839350   F   F   F
  0.8009260509021660  0.5550863325683113 21.7655570462890893   F   F   F
  2.4028741111294334 10.9208864738919313 22.2653963672145814   F   F   F
  8.0095482385007664  0.2489966408292134 20.4124455722676323   F   F   F
 -0.0000000001928900 10.6147968003553839 20.9122849736599932   F   F   F
  5.6066739848274088  0.5550863325833003 21.7655570463553651   F   F   F
 -2.4028741104361364 10.9208864739227582 22.2653963673508457   F   F   F
  8.0095482381779028  0.8611760242120801 23.1186685198891411   F   F   F
  0.0000000000201548 11.2269761473489851 23.6185077604177494   F   F   F
  5.6066742718147653  1.1672656794207694 24.4717798324229072   F   F   F
 -2.4028741097730872 11.5330658207443904 24.9716191533483922   F   F   F
  3.2038000175982466  0.8611759876816744 23.1186683584014503   F   F   F
  4.8057482207197086 11.2269761472078393 23.6185077597938076   F   F   F
  0.8009257639248926  1.1672656794357612 24.4717798324891760   F   F   F
  2.4028741104764593 11.5330658207752137 24.9716191534846637   F   F   F
  3.2038000172753818  1.4733553710645382 25.8248913060229555   T   T   T
  4.8057482209327604 11.8391554942014441 26.3247305465515673   T   T   T
  0.8009260509122432  1.7794450262732275 27.1780026185567181   T   T   T
  2.4028741111395102 12.1452451675968476 27.6778419394822102   T   T   T
  8.0095482385108472  1.4733553345341297 25.8248911445352647   T   T   T
 -0.0000000001828116 11.8391554940602983 26.3247305459276255   T   T   T
  5.6066739848374940  1.7794450262882167 27.1780026186229939   T   T   T
 -2.4028741104260600 12.1452451676276745 27.6778419396184745   T   T   T
  8.0095482381879854  2.0855347179169965 28.5311140921567734   T   T   T
  0.0000000000302369 12.4513348410539013 29.0309533326853817   T   T   T
  5.6066742718248470  2.3916243731256857 29.8842254046905360   T   T   T
  2.4028741111395111  0.1820160814725742 30.3840647256160246   T   T   T
  3.2038000176083332  2.0855346813865880 28.5311139306690826   T   T   T
  4.8057482207297850 12.4513348409127556 29.0309533320614364   T   T   T
  0.8009257639349713  2.3916243731406750 29.8842254047568083   T   T   T
  7.2086223313890647  0.1820160815034013 30.3840647257522924   T   T   T
  3.2038000172854639  2.6977140647694546 31.2373368782905843   T   T   T
  0.0000000000302523  0.4881057549296303 31.7371761188192032   T   T   T
  0.8009260509223293  3.0038037199781438 32.5904481908243540   T   T   T
  7.2086223320521094  0.7941954283250324 33.0902875117498354   T   T   T
  8.0095482385209280  2.6977140282390462 31.2373367168028935   T   T   T
  4.8057482207297859  0.4881057547884851 31.7371761181952508   T   T   T
  5.6066739848475651  3.0038037199931331 32.5904481908906263   T   T   T
  2.4028741104865388  0.7941954283558594 33.0902875118861033   T   T   T
  8.0095482381980680  3.3098934116219101 33.9435596644243986   T   T   T
  4.8057482209428350  1.1002851017820885 34.4433989049530140   T   T   T
  5.6066742718349385  3.6159830668305997 35.2966709769581684   T   T   T
  2.4028741111496044  1.4063747751774935 35.7965102978836569   T   T   T
  3.2038000176184021  3.3098933750915047 33.9435595029367079   T   T   T
 -0.0000000001727351  1.1002851016409405 34.4433989043290794   T   T   T
  0.8009257639450497  3.6159830668455886 35.2966709770244407   T   T   T
  7.2086223313991473  1.4063747752083176 35.7965102980199248   T   T   T
  3.2038000172955536  3.9220727584743709 36.6497824505582273   T   T   T
  0.0000000000403127  1.7124644486345466 37.1496216910868284   T   T   T
  0.8009260509323994  4.2281624136830578 38.0028937630919970   T   T   T
  7.2086223320621885  2.0185541220299488 38.5027330840174713   T   T   T
  8.0095482385310035  3.9220727219439624 36.6497822890705365   T   T   T
  4.8057482207398632  1.7124644484934013 37.1496216904628795   T   T   T
  5.6066739848576495  4.2281624136980467 38.0028937631582551   T   T   T
  2.4028741104966165  2.0185541220607757 38.5027330841537463   T   T   T
 -1.6019482036069752  4.5342521053268259 39.3560052366920274   T   T   T
  4.8057482209529132  2.3246437954870021 39.8558444772206499   T   T   T
  5.6066742718449980  4.8403417605355195 40.7091165492258042   T   T   T
  2.4028741111596661  2.6307334688824069 41.2089558701512928   T   T   T
  3.2038000176284811  4.5342520687964178 39.3560050752043367   T   T   T
 -0.0000000001626577  2.3246437953458567 39.8558444765967010   T   T   T
  0.8009257639551260  4.8403417605505075 40.7091165492920766   T   T   T
  7.2086223314092166  2.6307334689132311 41.2089558702875536   T   T   T
 -6.4076964245498171 24.1754548496081689 15.0000001614876908   F   F   F
  0.0000000000100792 21.9658465397683429 15.4998394020163044   F   F   F
 -8.8105703909129574 24.4815445048168563 16.3531114740214569   F   F   F
 -2.4028741097831672 22.2719362131637446 16.8529507949469455   F   F   F
 -1.6019482033143542 24.1754548130777529 15.0000000000000000   F   F   F
 -4.8057482211054943 21.9658465396271971 15.4998394013923591   F   F   F
 -4.0048224569877098 24.4815445048318452 16.3531114740877292   F   F   F
 -7.2086223313487423 22.2719362131945715 16.8529507950832098   F   F   F
 -1.6019482036372166 24.7876341964606262 17.7062229476215087   F   F   F
 -4.8057482208924425 22.5780258866208001 18.2060621881501241   F   F   F
 -4.0048221700003603 25.0937238516693206 19.0593342601552749   F   F   F
 -7.2086223306856878 22.8841155600162089 19.5591735810807599   F   F   F
 -6.4076964242168764 24.7876341599302172 17.7062227861338144   F   F   F
 -0.0000000001928936 22.5780258864796508 18.2060621875261752   F   F   F
 -8.8105706778902277 25.0937238516843024 19.0593342602215472   F   F   F
 -2.4028741104361395 22.8841155600470287 19.5591735812170313   F   F   F
 -1.6019482036372150 12.8244051103363539 20.4124457337553231   F   F   F
  0.0000000000201586 23.1902052334732574 20.9122849742839350   F   F   F
 -4.0048221700003550 13.1304947655450412 21.7655570462890893   F   F   F
 -2.4028741097730868 23.4962949068686626 22.2653963672145814   F   F   F
  3.2038000175982466 12.8244050738059432 20.4124455722676323   F   F   F
 -4.8057482210954108 23.1902052333321151 20.9122849736599932   F   F   F
  0.8009257639248879 13.1304947655600301 21.7655570463553651   F   F   F
 -7.2086223313386570 23.4962949068994860 22.2653963673508457   F   F   F
  3.2038000172753831 13.4365844571888093 23.1186685198891411   F   F   F
 -4.8057482208823652 23.8023845803257146 23.6185077604177494   F   F   F
  0.8009260509122447 13.7426741123974985 24.4717798324229072   F   F   F
 -7.2086223306756070 24.1084742537211199 24.9716191533483922   F   F   F
 -1.6019482033042738 13.4365844206584040 23.1186683584014503   F   F   F
 -0.0000000001828123 23.8023845801845724 23.6185077597938076   F   F   F
 -4.0048224569776281 13.7426741124124909 24.4717798324891760   F   F   F
 -2.4028741104260600 24.1084742537519467 24.9716191534846637   F   F   F
 -1.6019482036271384 14.0487638040412683 25.8248913060229555   T   T   T
  0.0000000000302414 24.4145639271781718 26.3247305465515673   T   T   T
 -4.0048221699902777 14.3548534592499593 27.1780026185567181   T   T   T
 -2.4028741097630091 24.7206536005735771 27.6778419394822102   T   T   T
  3.2038000176083266 14.0487637675108594 25.8248911445352647   T   T   T
 -4.8057482210853326 24.4145639270370260 26.3247305459276255   T   T   T
  0.8009257639349736 14.3548534592649464 27.1780026186229939   T   T   T
 -7.2086223313285815 24.7206536006044040 27.6778419396184745   T   T   T
  3.2038000172854648 14.6609431508937256 28.5311140921567734   T   T   T
 -4.8057482208722826 25.0267432740306290 29.0309533326853817   T   T   T
  0.8009260509223266 14.9670328061024147 29.8842254046905360   T   T   T
 -2.4028741097630095 12.7574245144493030 30.3840647256160246   T   T   T
 -1.6019482032941876 14.6609431143633167 28.5311139306690826   T   T   T
 -0.0000000001727348 25.0267432738894868 29.0309533320614364   T   T   T
 -4.0048224569675499 14.9670328061174072 29.8842254047568083   T   T   T
  2.4028741104865445 12.7574245144801299 30.3840647257522924   T   T   T
 -1.6019482036170571 15.2731224977461846 31.2373368782905843   T   T   T
 -4.8057482208722684 13.0635141879063621 31.7371761188192032   T   T   T
 -4.0048221699801916 15.5792121529548737 32.5904481908243540   T   T   T
  2.4028741111495888 13.3696038613017620 33.0902875117498354   T   T   T
  3.2038000176184078 15.2731224612157757 31.2373367168028935   T   T   T
 -0.0000000001727349 13.0635141877652146 31.7371761181952508   T   T   T
  0.8009257639450440 15.5792121529698626 32.5904481908906263   T   T   T
 -2.4028741104159819 13.3696038613325889 33.0902875118861033   T   T   T
  3.2038000172955461 15.8853018445986400 33.9435596644243986   T   T   T
  0.0000000000403145 13.6756935347588193 34.4433989049530140   T   T   T
  0.8009260509324174 16.1913914998073274 35.2966709769581684   T   T   T
 -2.4028741097529163 13.9817832081542228 35.7965102978836569   T   T   T
 -1.6019482032841188 15.8853018080682347 33.9435595029367079   T   T   T
 -4.8057482210752553 13.6756935346176700 34.4433989043290794   T   T   T
 -4.0048224569574709 16.1913914998223163 35.2966709770244407   T   T   T
  2.4028741104966267 13.9817832081850462 35.7965102980199248   T   T   T
 -1.6019482036069672 16.4974811914511008 36.6497824505582273   T   T   T
 -4.8057482208622080 14.2878728816112766 37.1496216910868284   T   T   T
 -4.0048221699701214 16.8035708466597882 38.0028937630919970   T   T   T
  2.4028741111596683 14.5939625550066783 38.5027330840174713   T   T   T
  3.2038000176284829 16.4974811549206919 36.6497822890705365   T   T   T
 -0.0000000001626572 14.2878728814701308 37.1496216904628795   T   T   T
  0.8009257639551287 16.8035708466747771 38.0028937631582551   T   T   T
 -2.4028741104059042 14.5939625550375052 38.5027330841537463   T   T   T
 -6.4076964245094956 17.1096605383035545 39.3560052366920274   T   T   T
  0.0000000000503929 14.9000522284637320 39.8558444772206499   T   T   T
  0.8009260509424767 17.4157501935122490 40.7091165492258042   T   T   T
 -2.4028741097428541 15.2061419018591373 41.2089558701512928   T   T   T
 -1.6019482032740402 17.1096605017731491 39.3560050752043367   T   T   T
 -4.8057482210651781 14.9000522283225862 39.8558444765967010   T   T   T
 -4.0048224569473945 17.4157501935272379 40.7091165492920766   T   T   T
  2.4028741105066955 15.2061419018899606 41.2089558702875536   T   T   T
 -11.2134446454523378 36.7508632825848949 15.0000001614876908   F   F   F
 -4.8057482208924416 34.5412549727450724 15.4998394020163044   F   F   F
 -13.6163186118154798 37.0569529377935822 16.3531114740214569   F   F   F
 -7.2086223306856887 34.8473446461404706 16.8529507949469455   F   F   F
 -6.4076964242168755 36.7508632460544860 15.0000000000000000   F   F   F
 -9.6114964420080131 34.5412549726039231 15.4998394013923591   F   F   F
 -8.8105706778902313 37.0569529378085747 16.3531114740877292   F   F   F
 -12.0143705522512629 34.8473446461713010 16.8529507950832098   F   F   F
 -6.4076964245397381 37.3630426294373592 17.7062229476215087   F   F   F
 -9.6114964417949622 35.1534343195975296 18.2060621881501241   F   F   F
 -8.8105703909028801 37.6691322846460466 19.0593342601552749   F   F   F
 -12.0143705515882093 35.4595239929929349 19.5591735810807599   F   F   F
 -11.2134446451193970 37.3630425929069503 17.7062227861338144   F   F   F
 -4.8057482210954134 35.1534343194563803 18.2060621875261752   F   F   F
 -13.6163188987927501 37.6691322846610319 19.0593342602215472   F   F   F
 -7.2086223313386606 35.4595239930237582 19.5591735812170313   F   F   F
 -6.4076964245397372 25.3998135433130834 20.4124457337553231   F   F   F
 -4.8057482208823625 35.7656136664499869 20.9122849742839350   F   F   F
 -8.8105703909028747 25.7059031985217707 21.7655570462890893   F   F   F
 -7.2086223306756079 36.0717033398453921 22.2653963672145814   F   F   F
 -1.6019482033042749 25.3998135067826709 20.4124455722676323   F   F   F
 -9.6114964419979305 35.7656136663088446 20.9122849736599932   F   F   F
 -4.0048224569776334 25.7059031985367596 21.7655570463553651   F   F   F
 -12.0143705522411786 36.0717033398762155 22.2653963673508457   F   F   F
 -1.6019482036271391 26.0119928901655406 23.1186685198891411   F   F   F
 -9.6114964417848867 36.3777930133024441 23.6185077604177494   F   F   F
 -4.0048221699902768 26.3180825453742315 24.4717798324229072   F   F   F
 -12.0143705515781285 36.6838826866978494 24.9716191533483922   F   F   F
 -6.4076964242067946 26.0119928536351317 23.1186683584014503   F   F   F
 -4.8057482210853317 36.3777930131612948 23.6185077597938076   F   F   F
 -8.8105706778801487 26.3180825453892204 24.4717798324891760   F   F   F
 -7.2086223313285815 36.6838826867286727 24.9716191534846637   F   F   F
 -6.4076964245296599 26.6241722370179978 25.8248913060229555   T   T   T
 -4.8057482208722799 36.9899723601549013 26.3247305465515673   T   T   T
 -8.8105703908927975 26.9302618922266852 27.1780026185567181   T   T   T
 -7.2086223306655306 37.2960620335503066 27.6778419394822102   T   T   T
 -1.6019482032941936 26.6241722004875889 25.8248911445352647   T   T   T
 -9.6114964419878532 36.9899723600137520 26.3247305459276255   T   T   T
 -4.0048224569675472 26.9302618922416741 27.1780026186229939   T   T   T
 -12.0143705522311013 37.2960620335811370 27.6778419396184745   T   T   T
 -1.6019482036170560 27.2363515838704551 28.5311140921567734   T   T   T
 -9.6114964417748059 37.6021517070073585 29.0309533326853817   T   T   T
 -4.0048221699801942 27.5424412390791460 29.8842254046905360   T   T   T
 -7.2086223306655306 25.3328329474260343 30.3840647256160246   T   T   T
 -6.4076964241967067 27.2363515473400497 28.5311139306690826   T   T   T
 -4.8057482210752562 37.6021517068662163 29.0309533320614364   T   T   T
 -8.8105706778700696 27.5424412390941349 29.8842254047568083   T   T   T
 -2.4028741104159765 25.3328329474568612 30.3840647257522924   T   T   T
 -6.4076964245195782 27.8485309307229123 31.2373368782905843   T   T   T
 -9.6114964417747881 25.6389226208830934 31.7371761188192032   T   T   T
 -8.8105703908827113 28.1546205859316032 32.5904481908243540   T   T   T
 -2.4028741097529323 25.9450122942784915 33.0902875117498354   T   T   T
 -1.6019482032841141 27.8485308941925069 31.2373367168028935   T   T   T
 -4.8057482210752553 25.6389226207419441 31.7371761181952508   T   T   T
 -4.0048224569574762 28.1546205859465921 32.5904481908906263   T   T   T
 -7.2086223313185034 25.9450122943093184 33.0902875118861033   T   T   T
 -1.6019482036069732 28.4607102775753731 33.9435596644243986   T   T   T
 -4.8057482208622071 26.2511019677355470 34.4433989049530140   T   T   T
 -4.0048221699701028 28.7667999327840569 35.2966709769581684   T   T   T
 -7.2086223306554373 26.5571916411309523 35.7965102978836569   T   T   T
 -6.4076964241866392 28.4607102410449642 33.9435595029367079   T   T   T
 -9.6114964419777760 26.2511019675944013 34.4433989043290794   T   T   T
 -8.8105706778599924 28.7667999327990458 35.2966709770244407   T   T   T
 -2.4028741104058953 26.5571916411617757 35.7965102980199248   T   T   T
 -6.4076964245094876 29.0728896244278303 36.6497824505582273   T   T   T
 -9.6114964417647286 26.8632813145880043 37.1496216910868284   T   T   T
 -8.8105703908726412 29.3789792796365177 38.0028937630919970   T   T   T
 -2.4028741097428532 27.1693709879834060 38.5027330840174713   T   T   T
 -1.6019482032740384 29.0728895878974214 36.6497822890705365   T   T   T
 -4.8057482210651772 26.8632813144468621 37.1496216904628795   T   T   T
 -4.0048224569473918 29.3789792796515066 38.0028937631582551   T   T   T
 -7.2086223313084252 27.1693709880142364 38.5027330841537463   T   T   T
 -11.2134446454120162 29.6850689712802840 39.3560052366920274   T   T   T
 -4.8057482208521280 27.4754606614404615 39.8558444772206499   T   T   T
 -4.0048221699600433 29.9911586264889785 40.7091165492258042   T   T   T
 -7.2086223306453761 27.7815503348358668 41.2089558701512928   T   T   T
 -6.4076964241765610 29.6850689347498786 39.3560050752043367   T   T   T
 -9.6114964419676987 27.4754606612993157 39.8558444765967010   T   T   T
 -8.8105706778499151 29.9911586265039709 40.7091165492920766   T   T   T
 -2.4028741103958247 27.7815503348666901 41.2089558702875536   T   T   T
  8.0095482381678256 11.6000464166314359 15.0000001614876908   F   F   F
 14.4172446627277200  9.3904381067916116 15.4998394020163044   F   F   F
  5.6066742718046818 11.9061360718401268 16.3531114740214569   F   F   F
 12.0143705529344746  9.6965277801870151 16.8529507949469455   F   F   F
 12.8152964594032888 11.6000463801010287 15.0000000000000000   F   F   F
  9.6114964416121502  9.3904381066504676 15.4998394013923591   F   F   F
 10.4124222057299338 11.9061360718551157 16.3531114740877292   F   F   F
  7.2086223313688986  9.6965277802178420 16.8529507950832098   F   F   F
 12.8152964590804235 12.2122257634838967 17.7062229476215087   F   F   F
  9.6114964418252011 10.0026174536440724 18.2060621881501241   F   F   F
 10.4124224927172815 12.5183154186925858 19.0593342601552749   F   F   F
  7.2086223320319522 10.3087071270394741 19.5591735810807599   F   F   F
  8.0095482385007646 12.2122257269534877 17.7062227861338144   F   F   F
 14.4172446625247463 10.0026174535029231 18.2060621875261752   F   F   F
  5.6066739848274141 12.5183154187075729 19.0593342602215472   F   F   F
 12.0143705522815019 10.3087071270703010 19.5591735812170313   F   F   F
 12.8152964590804253  0.2489966773596246 20.4124457337553231   F   F   F
 14.4172446627378044 10.6147968004965279 20.9122849742839350   F   F   F
 10.4124224927172868  0.5550863325683113 21.7655570462890893   F   F   F
 12.0143705529445537 10.9208864738919313 22.2653963672145814   F   F   F
 17.6210446803158867  0.2489966408292134 20.4124455722676323   F   F   F
  9.6114964416222293 10.6147968003553839 20.9122849736599932   F   F   F
 15.2181704266425317  0.5550863325833003 21.7655570463553651   F   F   F
  7.2086223313789839 10.9208864739227582 22.2653963673508457   F   F   F
 17.6210446799930196  0.8611760242120801 23.1186685198891411   F   F   F
  9.6114964418352749 11.2269761473489851 23.6185077604177494   F   F   F
 15.2181707136298865  1.1672656794207694 24.4717798324229072   F   F   F
  7.2086223320420348 11.5330658207443904 24.9716191533483922   F   F   F
 12.8152964594133660  0.8611759876816744 23.1186683584014503   F   F   F
 14.4172446625348272 11.2269761472078393 23.6185077597938076   F   F   F
 10.4124222057400129  1.1672656794357612 24.4717798324891760   F   F   F
 12.0143705522915791 11.5330658207752137 24.9716191534846637   F   F   F
 12.8152964590905043  1.4733553710645382 25.8248913060229555   T   T   T
 14.4172446627478799 11.8391554942014441 26.3247305465515673   T   T   T
 10.4124224927273659  1.7794450262732275 27.1780026185567181   T   T   T
 12.0143705529546310 12.1452451675968476 27.6778419394822102   T   T   T
 17.6210446803259657  1.4733553345341297 25.8248911445352647   T   T   T
  9.6114964416323101 11.8391554940602983 26.3247305459276255   T   T   T
 15.2181704266526143  1.7794450262882167 27.1780026186229939   T   T   T
  7.2086223313890621 12.1452451676276745 27.6778419396184745   T   T   T
 17.6210446800031093  2.0855347179169965 28.5311140921567734   T   T   T
  9.6114964418453575 12.4513348410539013 29.0309533326853817   T   T   T
 15.2181707136399691  2.3916243731256857 29.8842254046905360   T   T   T
 12.0143705529546310  0.1820160814725742 30.3840647256160246   T   T   T
 12.8152964594234540  2.0855346813865880 28.5311139306690826   T   T   T
 14.4172446625449044 12.4513348409127556 29.0309533320614364   T   T   T
 10.4124222057500919  2.3916243731406750 29.8842254047568083   T   T   T
 16.8201187732041895  0.1820160815034013 30.3840647257522924   T   T   T
 12.8152964591005833  2.6977140647694546 31.2373368782905843   T   T   T
  9.6114964418453752  0.4881057549296303 31.7371761188192032   T   T   T
 10.4124224927374520  3.0038037199781438 32.5904481908243540   T   T   T
 16.8201187738672324  0.7941954283250324 33.0902875117498354   T   T   T
 17.6210446803360519  2.6977140282390462 31.2373367168028935   T   T   T
 14.4172446625449080  0.4881057547884851 31.7371761181952508   T   T   T
 15.2181704266626845  3.0038037199931331 32.5904481908906263   T   T   T
 12.0143705523016600  0.7941954283558594 33.0902875118861033   T   T   T
 17.6210446800131884  3.3098934116219101 33.9435596644243986   T   T   T
 14.4172446627579571  1.1002851017820885 34.4433989049530140   T   T   T
 15.2181707136500606  3.6159830668305997 35.2966709769581684   T   T   T
 12.0143705529647260  1.4063747751774935 35.7965102978836569   T   T   T
 12.8152964594335206  3.3098933750915047 33.9435595029367079   T   T   T
  9.6114964416423874  1.1002851016409405 34.4433989043290794   T   T   T
 10.4124222057601692  3.6159830668455886 35.2966709770244407   T   T   T
 16.8201187732142685  1.4063747752083176 35.7965102980199248   T   T   T
 12.8152964591106748  3.9220727584743709 36.6497824505582273   T   T   T
  9.6114964418554329  1.7124644486345466 37.1496216910868284   T   T   T
 10.4124224927475204  4.2281624136830578 38.0028937630919970   T   T   T
 16.8201187738773079  2.0185541220299488 38.5027330840174713   T   T   T
 17.6210446803461238  3.9220727219439624 36.6497822890705365   T   T   T
 14.4172446625549853  1.7124644484934013 37.1496216904628795   T   T   T
 15.2181704266727689  4.2281624136980467 38.0028937631582551   T   T   T
 12.0143705523117372  2.0185541220607757 38.5027330841537463   T   T   T
  8.0095482382081471  4.5342521053268259 39.3560052366920274   T   T   T
 14.4172446627680344  2.3246437954870021 39.8558444772206499   T   T   T
 15.2181707136601183  4.8403417605355195 40.7091165492258042   T   T   T
 12.0143705529747855  2.6307334688824069 41.2089558701512928   T   T   T
 12.8152964594436032  4.5342520687964178 39.3560050752043367   T   T   T
  9.6114964416524629  2.3246437953458567 39.8558444765967010   T   T   T
 10.4124222057702465  4.8403417605505075 40.7091165492920766   T   T   T
 16.8201187732243369  2.6307334689132311 41.2089558702875536   T   T   T
  3.2038000172653036 24.1754548496081689 15.0000001614876908   F   F   F
  9.6114964418251976 21.9658465397683429 15.4998394020163044   F   F   F
  0.8009260509021618 24.4815445048168563 16.3531114740214569   F   F   F
  7.2086223320319540 22.2719362131637446 16.8529507949469455   F   F   F
  8.0095482385007699 24.1754548130777529 15.0000000000000000   F   F   F
  4.8057482207096252 21.9658465396271971 15.4998394013923591   F   F   F
  5.6066739848274123 24.4815445048318452 16.3531114740877292   F   F   F
  2.4028741104663780 22.2719362131945715 16.8529507950832098   F   F   F
  8.0095482381779011 24.7876341964606262 17.7062229476215087   F   F   F
  4.8057482209226805 22.5780258866208001 18.2060621881501241   F   F   F
  5.6066742718147600 25.0937238516693206 19.0593342601552749   F   F   F
  2.4028741111294321 22.8841155600162089 19.5591735810807599   F   F   F
  3.2038000175982440 24.7876341599302172 17.7062227861338144   F   F   F
  9.6114964416222275 22.5780258864796508 18.2060621875261752   F   F   F
  0.8009257639248933 25.0937238516843024 19.0593342602215472   F   F   F
  7.2086223313789812 22.8841155600470287 19.5591735812170313   F   F   F
  8.0095482381779028 12.8244051103363539 20.4124457337553231   F   F   F
  9.6114964418352820 23.1902052334732574 20.9122849742839350   F   F   F
  5.6066742718147653 13.1304947655450412 21.7655570462890893   F   F   F
  7.2086223320420357 23.4962949068686626 22.2653963672145814   F   F   F
 12.8152964594133660 12.8244050738059432 20.4124455722676323   F   F   F
  4.8057482207197086 23.1902052333321151 20.9122849736599932   F   F   F
 10.4124222057400075 13.1304947655600301 21.7655570463553651   F   F   F
  2.4028741104764628 23.4962949068994860 22.2653963673508457   F   F   F
 12.8152964590905007 13.4365844571888093 23.1186685198891411   F   F   F
  4.8057482209327551 23.8023845803257146 23.6185077604177494   F   F   F
 10.4124224927273659 13.7426741123974985 24.4717798324229072   F   F   F
  2.4028741111395147 24.1084742537211199 24.9716191533483922   F   F   F
  8.0095482385108454 13.4365844206584040 23.1186683584014503   F   F   F
  9.6114964416323065 23.8023845801845724 23.6185077597938076   F   F   F
  5.6066739848374914 13.7426741124124909 24.4717798324891760   F   F   F
  7.2086223313890612 24.1084742537519467 24.9716191534846637   F   F   F
  8.0095482381879837 14.0487638040412683 25.8248913060229555   T   T   T
  9.6114964418453592 24.4145639271781718 26.3247305465515673   T   T   T
  5.6066742718248452 14.3548534592499593 27.1780026185567181   T   T   T
  7.2086223320521094 24.7206536005735771 27.6778419394822102   T   T   T
 12.8152964594234469 14.0487637675108594 25.8248911445352647   T   T   T
  4.8057482207297895 24.4145639270370260 26.3247305459276255   T   T   T
 10.4124222057500937 14.3548534592649464 27.1780026186229939   T   T   T
  2.4028741104865405 24.7206536006044040 27.6778419396184745   T   T   T
 12.8152964591005887 14.6609431508937256 28.5311140921567734   T   T   T
  4.8057482209428377 25.0267432740306290 29.0309533326853817   T   T   T
 10.4124224927374449 14.9670328061024147 29.8842254046905360   T   T   T
  7.2086223320521103 12.7574245144493030 30.3840647256160246   T   T   T
  8.0095482385209351 14.6609431143633167 28.5311139306690826   T   T   T
  9.6114964416423909 25.0267432738894868 29.0309533320614364   T   T   T
  5.6066739848475704 14.9670328061174072 29.8842254047568083   T   T   T
 12.0143705523016635 12.7574245144801299 30.3840647257522924   T   T   T
  8.0095482381980609 15.2731224977461846 31.2373368782905843   T   T   T
  4.8057482209428510 13.0635141879063621 31.7371761188192032   T   T   T
  5.6066742718349287 15.5792121529548737 32.5904481908243540   T   T   T
 12.0143705529647153 13.3696038613017620 33.0902875117498354   T   T   T
 12.8152964594335312 15.2731224612157757 31.2373367168028935   T   T   T
  9.6114964416423838 13.0635141877652146 31.7371761181952508   T   T   T
 10.4124222057601674 15.5792121529698626 32.5904481908906263   T   T   T
  7.2086223313991393 13.3696038613325889 33.0902875118861033   T   T   T
 12.8152964591106659 15.8853018445986400 33.9435596644243986   T   T   T
  9.6114964418554365 13.6756935347588193 34.4433989049530140   T   T   T
 10.4124224927475417 16.1913914998073274 35.2966709769581684   T   T   T
  7.2086223320622063 13.9817832081542228 35.7965102978836569   T   T   T
  8.0095482385310000 15.8853018080682347 33.9435595029367079   T   T   T
  4.8057482207398676 13.6756935346176700 34.4433989043290794   T   T   T
  5.6066739848576486 16.1913914998223163 35.2966709770244407   T   T   T
 12.0143705523117479 13.9817832081850462 35.7965102980199248   T   T   T
  8.0095482382081542 16.4974811914511008 36.6497824505582273   T   T   T
  4.8057482209529123 14.2878728816112766 37.1496216910868284   T   T   T
  5.6066742718449989 16.8035708466597882 38.0028937630919970   T   T   T
 12.0143705529747891 14.5939625550066783 38.5027330840174713   T   T   T
 12.8152964594436050 16.4974811549206919 36.6497822890705365   T   T   T
  9.6114964416524646 14.2878728814701308 37.1496216904628795   T   T   T
 10.4124222057702482 16.8035708466747771 38.0028937631582551   T   T   T
  7.2086223314092175 14.5939625550375052 38.5027330841537463   T   T   T
  3.2038000173056265 17.1096605383035545 39.3560052366920274   T   T   T
  9.6114964418655138 14.9000522284637320 39.8558444772206499   T   T   T
 10.4124224927575977 17.4157501935122490 40.7091165492258042   T   T   T
  7.2086223320722649 15.2061419018591373 41.2089558701512928   T   T   T
  8.0095482385410790 17.1096605017731491 39.3560050752043367   T   T   T
  4.8057482207499422 14.9000522283225862 39.8558444765967010   T   T   T
  5.6066739848677267 17.4157501935272379 40.7091165492920766   T   T   T
 12.0143705523218181 15.2061419018899606 41.2089558702875536   T   T   T
 -1.6019482036372157 36.7508632825848949 15.0000001614876908   F   F   F
  4.8057482209226769 34.5412549727450724 15.4998394020163044   F   F   F
 -4.0048221700003577 37.0569529377935822 16.3531114740214569   F   F   F
  2.4028741111294312 34.8473446461404706 16.8529507949469455   F   F   F
  3.2038000175982484 36.7508632460544860 15.0000000000000000   F   F   F
 -0.0000000001928908 34.5412549726039231 15.4998394013923591   F   F   F
  0.8009257639248910 37.0569529378085747 16.3531114740877292   F   F   F