Cu
 1.0000000000000000
    26.5627311255301208    0.0000000000000000    0.0000000000000000
   -13.2813655626550222   37.0626029232327170    0.0000000000000000
     0.0000000000000000   -0.0000000000000000   54.1884187993360698
 Cu 
 720
Selective dynamics
Cartesian
  4.4271218542917019  9.3339983898591985 15.4317954564906916   F   F   F
 -3.6892976780069864 11.6402965803868437 16.2503486714948409   F   F   F
 -2.2135609273322965  9.5984078803420108 16.6821440533363941   F   F   F
  2.9513849714615348 11.3758870741180829 15.0000000000000000   F   F   F
  2.2135609273624341  9.5984078803706421 16.6821440534717986   F   F   F
 -1.4757368834018705 11.3758871055562789 15.0000001486660093   F   F   F
 -0.0000000000432233  9.3339983898257639 15.4317954563325852   F   F   F
  0.7378239118483123 11.6402965803152068 16.2503486711560861   F   F   F
  0.0000000000733613  9.8628173708868854 17.9324926504756093   F   F   F
  0.7378241762847144 12.1691155614145288 18.7510458654797603   F   F   F
  2.2135609269594032 10.1272268613696923 19.1828412473213135   F   F   F
 -1.4757368827568034 11.9047060551457697 17.5006971939849194   F   F   F
 -2.2135609268559047 10.1272268613983272 19.1828412474567180   F   F   F
  2.9513849708898308 11.9047060865839676 17.5006973426509269   F   F   F
  4.4271218542484787  9.8628173708534508 17.9324926503175028   F   F   F
 -3.6892979423700267 12.1691155613428919 18.7510458651410055   F   F   F
  4.4271218543650646 10.3916363519145705 20.4331898444605287   F   F   F
  0.7378241762847183  0.3437335680313079 21.2517430594646797   F   F   F
 -2.2135609272589356 10.6560458423973774 21.6835384413062329   F   F   F
  7.3785068257532398  0.0793240617625472 20.0013943879698388   F   F   F
  2.2135609274357946 10.6560458424260123 21.6835384414416374   F   F   F
  2.9513849708898312  0.0793240932007433 20.0013945366358463   F   F   F
  0.0000000000301388 10.3916363518811359 20.4331898443024222   F   F   F
  5.1649457661400175  0.3437335679596696 21.2517430591259249   F   F   F
  0.0000000001467238 10.9204553329422556 22.9338870384454481   F   F   F
  5.1649460305764165  0.8725525490589920 23.7524402534495991   F   F   F
  2.2135609270327654 11.1848648234250643 24.1842356352911523   F   F   F
  2.9513849715348983  0.6081430427902341 22.5020915819547547   F   F   F
 -2.2135609267825456 11.1848648234536991 24.1842356354265533   F   F   F
  7.3785068251815318  0.6081430742284303 22.5020917306207693   F   F   F
  4.4271218543218405 10.9204553329088210 22.9338870382873417   F   F   F
  0.7378239119216778  0.8725525489873567 23.7524402531108443   F   F   F
  4.4271218544384254 11.4492743139699407 25.4345842324303675   T   T   T
  0.7378241763580734  1.4013715300866763 26.2531374474345185   T   T   T
 -2.2135609271855703 11.7136838044527511 26.6849328292760717   T   T   T
  7.3785068258265998  1.1369620238179183 25.0027887759396776   T   T   T
  2.2135609275091568 11.7136838044813842 26.6849328294114727   T   T   T
  2.9513849709631912  1.1369620552561144 25.0027889246056851   T   T   T
  0.0000000001035006 11.4492743139365079 25.4345842322722611   T   T   T
  5.1649457662133749  1.4013715300150436 26.2531374470957601   T   T   T
  0.0000000002200851 11.9780932949976293 27.9352814264152869   T   T   T
  5.1649460306497827  1.9301905111143631 28.7538346414194343   T   T   T
  2.2135609271061321 12.2425027854804362 29.1856300232609911   T   T   T
  2.9513849716082645  1.6657810048456052 27.5034859699245970   T   T   T
 -2.2135609267091785 12.2425027855090693 29.1856300233963957   T   T   T
  7.3785068252548927  1.6657810362838015 27.5034861185906081   T   T   T
  4.4271218543952067 11.9780932949641947 27.9352814262571840   T   T   T
  0.7378239119950399  1.9301905110427278 28.7538346410806831   T   T   T
  0.0000000002200833  0.1527113016144063 30.4359786204002063   T   T   T
  0.7378241764314346  2.4590094921420502 31.2545318354043538   T   T   T
  2.2135609271061334  0.4171207920972148 31.6863272172459105   T   T   T
  7.3785068258999624  2.1945999858732894 30.0041831639095165   T   T   T
  6.6406827818008631  0.4171207921258482 31.6863272173813151   T   T   T
  2.9513849710365578  2.1946000173114855 30.0041833125755275   T   T   T
  4.4271218543952031  0.1527113015809724 30.4359786202420963   T   T   T
  5.1649457662867331  2.4590094920704120 31.2545318350655954   T   T   T
  4.4271218545117890  0.6815302826420906 32.9366758143851257   T   T   T
  5.1649460307231490  2.9878284731697344 33.7552290293892767   T   T   T
  6.6406827813978371  0.9459397731249017 34.1870244112308299   T   T   T
  2.9513849716816298  2.7234189669009763 32.5048803578944359   T   T   T
  2.2135609275825279  0.9459397731535351 34.1870244113662380   T   T   T
  7.3785068253282589  2.7234189983391728 32.5048805065604398   T   T   T
  0.0000000001768720  0.6815302826086593 32.9366758142270157   T   T   T
  0.7378239120683989  2.9878284730980962 33.7552290290505255   T   T   T
  0.0000000002934454  1.2103492636697772 35.4373730083700451   T   T   T
  0.7378241765048050  3.5166474541974186 36.2559262233741890   T   T   T
  2.2135609271795031  1.4747587541525859 36.6877216052157493   T   T   T
  7.3785068259733286  3.2522379479286605 35.0055775518793482   T   T   T
  6.6406827818742258  1.4747587541812193 36.6877216053511575   T   T   T
  2.9513849711099240  3.2522379793668570 35.0055777005453592   T   T   T
  4.4271218544685693  1.2103492636363435 35.4373730082119351   T   T   T
  5.1649457663601037  3.5166474541257831 36.2559262230354378   T   T   T
  4.4271218545851507  1.7391682446974619 37.9380702023549574   T   T   T
  5.1649460307965027  4.0454664352251051 38.7566234173591084   T   T   T
  6.6406827814711997  2.0035777351802730 39.1884187992006616   T   T   T
  2.9513849717549840  3.7810569289563474 37.5062747458642676   T   T   T
  2.2135609276558830  2.0035777352089035 39.1884187993360698   T   T   T
  7.3785068254016206  3.7810569603945408 37.5062748945302786   T   T   T
  0.0000000002502270  1.7391682446640278 37.9380702021968546   T   T   T
  0.7378239121417678  4.0454664351534699 38.7566234170203501   T   T   T
  0.0000000000733602 21.6881993642701048 15.4317954564906916   F   F   F
 -8.1164195322253274 23.9944975547977464 16.2503486714948409   F   F   F
 -6.6406827815506375 21.9526088547529170 16.6821440533363941   F   F   F
 -1.4757368827568065 23.7300880485289909 15.0000000000000000   F   F   F
 -2.2135609268559073 21.9526088547815483 16.6821440534717986   F   F   F
 -5.9028587376202122 23.7300880799671852 15.0000001486660093   F   F   F
 -4.4271218542615642 21.6881993642366702 15.4317954563325852   F   F   F
 -3.6892979423700289 23.9944975547261130 16.2503486711560861   F   F   F
 -4.4271218541449802 22.2170183452977916 17.9324926504756093   F   F   F
 -3.6892976779336268 24.5233165358254368 18.7510458654797603   F   F   F
 -2.2135609272589369 22.4814278357806003 19.1828412473213135   F   F   F
 -5.9028587369751442 24.2589070295566742 17.5006971939849194   F   F   F
 -6.6406827810742461 22.4814278358092352 19.1828412474567180   F   F   F
 -1.4757368833285096 24.2589070609948720 17.5006973426509269   F   F   F
  0.0000000000301379 22.2170183452643570 17.9324926503175028   F   F   F
 -8.1164197965883673 24.5233165357537963 18.7510458651410055   F   F   F
  0.0000000001467234 22.7458373263254785 20.4331898444605287   F   F   F
 -3.6892976779336228 12.6979345424422139 21.2517430594646797   F   F   F
 -6.6406827814772775 23.0102468168082837 21.6835384413062329   F   F   F
  2.9513849715348988 12.4335250361734531 20.0013943879698388   F   F   F
 -2.2135609267825469 23.0102468168369185 21.6835384414416374   F   F   F
 -1.4757368833285098 12.4335250676116491 20.0013945366358463   F   F   F
 -4.4271218541882016 22.7458373262920404 20.4331898443024222   F   F   F
  0.7378239119216768 12.6979345423705752 21.2517430591259249   F   F   F
 -4.4271218540716166 23.2746563073531618 22.9338870384454481   F   F   F
  0.7378241763580756 13.2267535234698990 23.7524402534495991   F   F   F
 -2.2135609271855752 23.5390657978359705 24.1842356352911523   F   F   F
 -1.4757368826834425 12.9623440172011399 22.5020915819547547   F   F   F
 -6.6406827810008870 23.5390657978646054 24.1842356354265533   F   F   F
  2.9513849709631912 12.9623440486393360 22.5020917306207693   F   F   F
  0.0000000001034993 23.2746563073197272 22.9338870382873417   F   F   F
 -3.6892979422966636 13.2267535233982620 23.7524402531108443   F   F   F
  0.0000000002200853 23.8034752883808451 25.4345842324303675   T   T   T
 -3.6892976778602677 13.7555725044975823 26.2531374474345185   T   T   T
 -6.6406827814039113 24.0678847788636574 26.6849328292760717   T   T   T
  2.9513849716082583 13.4911629982288268 25.0027887759396776   T   T   T
 -2.2135609267091838 24.0678847788922887 26.6849328294114727   T   T   T
 -1.4757368832551503 13.4911630296670211 25.0027889246056851   T   T   T
 -4.4271218541148398 23.8034752883474141 25.4345842322722611   T   T   T
  0.7378239119950339 13.7555725044259489 26.2531374470957601   T   T   T
 -4.4271218539982558 24.3322942694085391 27.9352814264152869   T   T   T
  0.7378241764314422 14.2843914855252709 28.7538346414194343   T   T   T
 -2.2135609271122085 24.5967037598913407 29.1856300232609911   T   T   T
 -1.4757368826100767 14.0199819792565119 27.5034859699245970   T   T   T
 -6.6406827809275200 24.5967037599199756 29.1856300233963957   T   T   T
  2.9513849710365516 14.0199820106947080 27.5034861185906081   T   T   T
  0.0000000001768647 24.3322942693750974 27.9352814262571840   T   T   T
 -3.6892979422233010 14.2843914854536340 28.7538346410806831   T   T   T
 -4.4271218539982575 12.5069122760253126 30.4359786204002063   T   T   T
 -3.6892976777869069 14.8132104665529560 31.2545318354043538   T   T   T
 -2.2135609271122072 12.7713217665081213 31.6863272172459105   T   T   T
  2.9513849716816218 14.5488009602841952 30.0041831639095165   T   T   T
  2.2135609275825221 12.7713217665367544 31.6863272173813151   T   T   T
 -1.4757368831817832 14.5488009917223913 30.0041833125755275   T   T   T
  0.0000000001768618 12.5069122759918780 30.4359786202420963   T   T   T
  0.7378239120683925 14.8132104664813209 31.2545318350655954   T   T   T
  0.0000000002934479 13.0357312570529977 32.9366758143851257   T   T   T
  0.7378241765048069 15.3420294475806411 33.7552290293892767   T   T   T
  2.2135609271794956 13.3001407475358082 34.1870244112308299   T   T   T
 -1.4757368825367112 15.0776199413118821 32.5048803578944359   T   T   T
 -2.2135609266358136 13.3001407475644413 34.1870244113662380   T   T   T
  2.9513849711099178 15.0776199727500781 32.5048805065604398   T   T   T
 -4.4271218540414692 13.0357312570195649 32.9366758142270157   T   T   T
 -3.6892979421499414 15.3420294475090024 33.7552290290505255   T   T   T
 -4.4271218539248958 13.5645502380806846 35.4373730083700451   T   T   T
 -3.6892976777135358 15.8708484286083245 36.2559262233741890   T   T   T
 -2.2135609270388379 13.8289597285634915 36.6877216052157493   T   T   T
  2.9513849717549876 15.6064389223395672 35.0055775518793482   T   T   T
  2.2135609276558852 13.8289597285921246 36.6877216053511575   T   T   T
 -1.4757368831084166 15.6064389537777650 35.0055777005453592   T   T   T
  0.0000000002502284 13.5645502380472500 35.4373730082119351   T   T   T
  0.7378239121417624 15.8708484285366893 36.2559262230354378   T   T   T
  0.0000000003668100 14.0933692191083679 37.9380702023549574   T   T   T
  0.7378241765781617 16.3996674096360096 38.7566234173591084   T   T   T
  2.2135609272528591 14.3577787095911802 39.1884187992006616   T   T   T
 -1.4757368824633574 16.1352579033672541 37.5062747458642676   T   T   T
 -2.2135609265624581 14.3577787096198097 39.1884187993360698   T   T   T
  2.9513849711832791 16.1352579348054483 37.5062748945302786   T   T   T
 -4.4271218539681136 14.0933692190749333 37.9380702021968546   T   T   T
 -3.6892979420765730 16.3996674095643762 38.7566234170203501   T   T   T
 -4.4271218541449811 34.0424003386810128 15.4317954564906916   F   F   F
 -12.5435413864436693 36.3486985292086544 16.2503486714948409   F   F   F
 -11.0678046357689794 34.3068098291638250 16.6821440533363941   F   F   F
 -5.9028587369751477 36.0842890229398989 15.0000000000000000   F   F   F
 -6.6406827810742470 34.3068098291924528 16.6821440534717986   F   F   F
 -10.3299805918385523 36.0842890543780896 15.0000001486660093   F   F   F
 -8.8542437084799044 34.0424003386475817 15.4317954563325852   F   F   F
 -8.1164197965883709 36.3486985291370175 16.2503486711560861   F   F   F
 -8.8542437083633203 34.5712193197086961 17.9324926504756093   F   F   F
 -8.1164195321519674 36.8775175102363448 18.7510458654797603   F   F   F
 -6.6406827814772793 34.8356288101915084 19.1828412473213135   F   F   F
 -10.3299805911934843 36.6131080039675822 17.5006971939849194   F   F   F
 -11.0678046352925872 34.8356288102201432 19.1828412474567180   F   F   F
 -5.9028587375468504 36.6131080354057801 17.5006973426509269   F   F   F
 -4.4271218541882034 34.5712193196752651 17.9324926503175028   F   F   F
 -12.5435416508067092 36.8775175101647079 18.7510458651410055   F   F   F
 -4.4271218540716157 35.1000383007363865 20.4331898444605287   F   F   F
 -8.1164195321519639 25.0521355168531201 21.2517430594646797   F   F   F
 -11.0678046356956177 35.3644477912191917 21.6835384413062329   F   F   F
 -1.4757368826834423 24.7877260105843611 20.0013943879698388   F   F   F
 -6.6406827810008879 35.3644477912478266 21.6835384414416374   F   F   F
 -5.9028587375468504 24.7877260420225554 20.0013945366358463   F   F   F
 -8.8542437084065426 35.1000383007029484 20.4331898443024222   F   F   F
 -3.6892979422966645 25.0521355167814832 21.2517430591259249   F   F   F
 -8.8542437082899585 35.6288572817640699 22.9338870384454481   F   F   F
 -3.6892976778602660 25.5809544978808034 23.7524402534495991   F   F   F
 -6.6406827814039175 35.8932667722468750 24.1842356352911523   F   F   F
 -5.9028587369017833 25.3165449916120480 22.5020915819547547   F   F   F
 -11.0678046352192272 35.8932667722755099 24.1842356354265533   F   F   F
 -1.4757368832551510 25.3165450230502458 22.5020917306207693   F   F   F
 -4.4271218541148407 35.6288572817306317 22.9338870382873417   F   F   F
 -8.1164197965150038 25.5809544978091701 23.7524402531108443   F   F   F
 -4.4271218539982558 36.1576762627917532 25.4345842324303675   T   T   T
 -8.1164195320786092 26.1097734789084903 26.2531374474345185   T   T   T
 -11.0678046356222524 36.4220857532745654 26.6849328292760717   T   T   T
 -1.4757368826100823 25.8453639726397313 25.0027887759396776   T   T   T
 -6.6406827809275262 36.4220857533031932 26.6849328294114727   T   T   T
 -5.9028587374734904 25.8453640040779256 25.0027889246056851   T   T   T
 -8.8542437083331809 36.1576762627583221 25.4345842322722611   T   T   T
 -3.6892979422233081 26.1097734788368605 26.2531374470957601   T   T   T
 -8.8542437082165968 36.6864952438194365 27.9352814264152869   T   T   T
 -3.6892976777868993 26.6385924599361772 28.7538346414194343   T   T   T
 -6.6406827813305505 36.9509047343022488 29.1856300232609911   T   T   T
 -5.9028587368284171 26.3741829536674182 27.5034859699245970   T   T   T
 -11.0678046351458601 36.9509047343308836 29.1856300233963957   T   T   T
 -1.4757368831817907 26.3741829851056124 27.5034861185906081   T   T   T
 -4.4271218540414745 36.6864952437860055 27.9352814262571840   T   T   T
 -8.1164197964416420 26.6385924598645403 28.7538346410806831   T   T   T
 -8.8542437082165986 24.8611132504362189 30.4359786204002063   T   T   T
 -8.1164195320052475 27.1674114409638641 31.2545318354043538   T   T   T
 -6.6406827813305487 25.1255227409190276 31.6863272172459105   T   T   T
 -1.4757368825367201 26.9030019346951050 30.0041831639095165   T   T   T
 -2.2135609266358189 25.1255227409476625 31.6863272173813151   T   T   T
 -5.9028587374001233 26.9030019661332993 30.0041833125755275   T   T   T
 -4.4271218540414798 24.8611132504027843 30.4359786202420963   T   T   T
 -3.6892979421499481 27.1674114408922236 31.2545318350655954   T   T   T
 -4.4271218539248931 25.3899322314639022 32.9366758143851257   T   T   T
 -3.6892976777135336 27.6962304219915438 33.7552290293892767   T   T   T
 -2.2135609270388454 25.6543417219467145 34.1870244112308299   T   T   T
 -5.9028587367550518 27.4318209157227884 32.5048803578944359   T   T   T
 -6.6406827808541546 25.6543417219753493 34.1870244113662380   T   T   T
 -1.4757368831084232 27.4318209471609862 32.5048805065604398   T   T   T
 -8.8542437082598102 25.3899322314304676 32.9366758142270157   T   T   T
 -8.1164197963682838 27.6962304219199069 33.7552290290505255   T   T   T
 -8.8542437081432368 25.9187512124915891 35.4373730083700451   T   T   T
 -8.1164195319318768 28.2250494030192307 36.2559262233741890   T   T   T
 -6.6406827812571780 26.1831607029743978 36.6877216052157493   T   T   T
 -1.4757368824633528 27.9606398967504717 35.0055775518793482   T   T   T
 -2.2135609265624567 26.1831607030030327 36.6877216053511575   T   T   T
 -5.9028587373267589 27.9606399281886695 35.0055777005453592   T   T   T
 -4.4271218539681128 25.9187512124581545 35.4373730082119351   T   T   T
 -3.6892979420765788 28.2250494029475973 36.2559262230354378   T   T   T
 -4.4271218538515313 26.4475701935192760 37.9380702023549574   T   T   T
 -3.6892976776401785 28.7538683840469176 38.7566234173591084   T   T   T
 -2.2135609269654828 26.7119796840020811 39.1884187992006616   T   T   T
 -5.9028587366816980 28.4894588777781586 37.5062747458642676   T   T   T
 -6.6406827807807982 26.7119796840307160 39.1884187993360698   T   T   T
 -1.4757368830350612 28.4894589092163528 37.5062748945302786   T   T   T
 -8.8542437081864556 26.4475701934858414 37.9380702021968546   T   T   T
 -8.1164197962949149 28.7538683839752807 38.7566234170203501   T   T   T
 13.2813655628017440  9.3339983898591985 15.4317954564906916   F   F   F
  5.1649460305030530 11.6402965803868437 16.2503486714948409   F   F   F
  6.6406827811777429  9.5984078803420108 16.6821440533363941   F   F   F
 11.8056286799715746 11.3758870741180829 15.0000000000000000   F   F   F
 11.0678046358724735  9.5984078803706421 16.6821440534717986   F   F   F
  7.3785068251081700 11.3758871055562789 15.0000001486660093   F   F   F
  8.8542437084668180  9.3339983898257639 15.4317954563325852   F   F   F
  9.5920676203583515 11.6402965803152068 16.2503486711560861   F   F   F
  8.8542437085834020  9.8628173708868854 17.9324926504756093   F   F   F
  9.5920678847947514 12.1691155614145288 18.7510458654797603   F   F   F
 11.0678046354694430 10.1272268613696923 19.1828412473213135   F   F   F
  7.3785068257532371 11.9047060551457697 17.5006971939849194   F   F   F
  6.6406827816541343 10.1272268613983272 19.1828412474567180   F   F   F
 11.8056286793998719 11.9047060865839676 17.5006973426509269   F   F   F
 13.2813655627585199  9.8628173708534508 17.9324926503175028   F   F   F
  5.1649457661400131 12.1691155613428919 18.7510458651410055   F   F   F
 13.2813655628751057 10.3916363519145705 20.4331898444605287   F   F   F
  9.5920678847947585  0.3437335680313079 21.2517430594646797   F   F   F
  6.6406827812511056 10.6560458423973774 21.6835384413062329   F   F   F
 16.2327505342632818  0.0793240617625472 20.0013943879698388   F   F   F
 11.0678046359458335 10.6560458424260123 21.6835384414416374   F   F   F
 11.8056286793998719  0.0793240932007433 20.0013945366358463   F   F   F
  8.8542437085401779 10.3916363518811359 20.4331898443024222   F   F   F
 14.0191894746500605  0.3437335679596696 21.2517430591259249   F   F   F
  8.8542437086567638 10.9204553329422556 22.9338870384454481   F   F   F
 14.0191897390864568  0.8725525490589920 23.7524402534495991   F   F   F
 11.0678046355428084 11.1848648234250643 24.1842356352911523   F   F   F
 11.8056286800449382  0.6081430427902341 22.5020915819547547   F   F   F
  6.6406827817274952 11.1848648234536991 24.1842356354265533   F   F   F
 16.2327505336915721  0.6081430742284303 22.5020917306207693   F   F   F
 13.2813655628318816 10.9204553329088210 22.9338870382873417   F   F   F
  9.5920676204317186  0.8725525489873567 23.7524402531108443   F   F   F
 13.2813655629484657 11.4492743139699407 25.4345842324303675   T   T   T
  9.5920678848681131  1.4013715300866763 26.2531374474345185   T   T   T
  6.6406827813244691 11.7136838044527511 26.6849328292760717   T   T   T
 16.2327505343366383  1.1369620238179183 25.0027887759396776   T   T   T
 11.0678046360191988 11.7136838044813842 26.6849328294114727   T   T   T
 11.8056286794732319  1.1369620552561144 25.0027889246056851   T   T   T
  8.8542437086135433 11.4492743139365079 25.4345842322722611   T   T   T
 14.0191894747234151  1.4013715300150436 26.2531374470957601   T   T   T
  8.8542437087301256 11.9780932949976293 27.9352814264152869   T   T   T
 14.0191897391598239  1.9301905111143631 28.7538346414194343   T   T   T
 11.0678046356161701 12.2425027854804362 29.1856300232609911   T   T   T
 11.8056286801183052  1.6657810048456052 27.5034859699245970   T   T   T
  6.6406827818008631 12.2425027855090693 29.1856300233963957   T   T   T
 16.2327505337649320  1.6657810362838015 27.5034861185906081   T   T   T
 13.2813655629052452 11.9780932949641947 27.9352814262571840   T   T   T
  9.5920676205050803  1.9301905110427278 28.7538346410806831   T   T   T
  8.8542437087301238  0.1527113016144063 30.4359786204002063   T   T   T
  9.5920678849414749  2.4590094921420502 31.2545318354043538   T   T   T
 11.0678046356161737  0.4171207920972148 31.6863272172459105   T   T   T
 16.2327505344100018  2.1945999858732894 30.0041831639095165   T   T   T
 15.4949264903109007  0.4171207921258482 31.6863272173813151   T   T   T
 11.8056286795465972  2.1946000173114855 30.0041833125755275   T   T   T
 13.2813655629052452  0.1527113015809724 30.4359786202420963   T   T   T
 14.0191894747967716  2.4590094920704120 31.2545318350655954   T   T   T
 13.2813655630218310  0.6815302826420906 32.9366758143851257   T   T   T
 14.0191897392331857  2.9878284731697344 33.7552290293892767   T   T   T
 15.4949264899078774  0.9459397731249017 34.1870244112308299   T   T   T
 11.8056286801916706  2.7234189669009763 32.5048803578944359   T   T   T
 11.0678046360925677  0.9459397731535351 34.1870244113662380   T   T   T
 16.2327505338382991  2.7234189983391728 32.5048805065604398   T   T   T
  8.8542437086869121  0.6815302826086593 32.9366758142270157   T   T   T
  9.5920676205784385  2.9878284730980962 33.7552290290505255   T   T   T
  8.8542437088034838  1.2103492636697772 35.4373730083700451   T   T   T
  9.5920678850148455  3.5166474541974186 36.2559262233741890   T   T   T
 11.0678046356895443  1.4747587541525859 36.6877216052157493   T   T   T
 16.2327505344833689  3.2522379479286605 35.0055775518793482   T   T   T
 15.4949264903842678  1.4747587541812193 36.6877216053511575   T   T   T
 11.8056286796199643  3.2522379793668570 35.0055777005453592   T   T   T
 13.2813655629786123  1.2103492636363435 35.4373730082119351   T   T   T
 14.0191894748701440  3.5166474541257831 36.2559262230354378   T   T   T
 13.2813655630951910  1.7391682446974619 37.9380702023549574   T   T   T
 14.0191897393065421  4.0454664352251051 38.7566234173591084   T   T   T
 15.4949264899812373  2.0035777351802730 39.1884187992006616   T   T   T
 11.8056286802650234  3.7810569289563474 37.5062747458642676   T   T   T
 11.0678046361659241  2.0035777352089035 39.1884187993360698   T   T   T
 16.2327505339116627  3.7810569603945408 37.5062748945302786   T   T   T
  8.8542437087602668  1.7391682446640278 37.9380702021968546   T   T   T
  9.5920676206518074  4.0454664351534699 38.7566234170203501   T   T   T
  8.8542437085834003 21.6881993642701048 15.4317954564906916   F   F   F
  0.7378241762847130 23.9944975547977464 16.2503486714948409   F   F   F
  2.2135609269594019 21.9526088547529170 16.6821440533363941   F   F   F
  7.3785068257532336 23.7300880485289909 15.0000000000000000   F   F   F
  6.6406827816541334 21.9526088547815483 16.6821440534717986   F   F   F
  2.9513849708898294 23.7300880799671852 15.0000001486660093   F   F   F
  4.4271218542484760 21.6881993642366702 15.4317954563325852   F   F   F
  5.1649457661400113 23.9944975547261130 16.2503486711560861   F   F   F
  4.4271218543650610 22.2170183452977916 17.9324926504756093   F   F   F
  5.1649460305764112 24.5233165358254368 18.7510458654797603   F   F   F
  6.6406827812511011 22.4814278357806003 19.1828412473213135   F   F   F
  2.9513849715348965 24.2589070295566742 17.5006971939849194   F   F   F
  2.2135609274357941 22.4814278358092352 19.1828412474567180   F   F   F
  7.3785068251815309 24.2589070609948720 17.5006973426509269   F   F   F
  8.8542437085401797 22.2170183452643570 17.9324926503175028   F   F   F
  0.7378239119216722 24.5233165357537963 18.7510458651410055   F   F   F
  8.8542437086567638 22.7458373263254785 20.4331898444605287   F   F   F
  5.1649460305764165 12.6979345424422139 21.2517430594646797   F   F   F
  2.2135609270327641 23.0102468168082837 21.6835384413062329   F   F   F
 11.8056286800449399 12.4335250361734531 20.0013943879698388   F   F   F
  6.6406827817274916 23.0102468168369185 21.6835384414416374   F   F   F
  7.3785068251815309 12.4335250676116491 20.0013945366358463   F   F   F
  4.4271218543218378 22.7458373262920404 20.4331898443024222   F   F   F
  9.5920676204317168 12.6979345423705752 21.2517430591259249   F   F   F
  4.4271218544384228 23.2746563073531618 22.9338870384454481   F   F   F
  9.5920678848681149 13.2267535234698990 23.7524402534495991   F   F   F
  6.6406827813244647 23.5390657978359705 24.1842356352911523   F   F   F
  7.3785068258265980 12.9623440172011399 22.5020915819547547   F   F   F
  2.2135609275091546 23.5390657978646054 24.1842356354265533   F   F   F
 11.8056286794732337 12.9623440486393360 22.5020917306207693   F   F   F
  8.8542437086135397 23.2746563073197272 22.9338870382873417   F   F   F
  5.1649457662133766 13.2267535233982620 23.7524402531108443   F   F   F
  8.8542437087301256 23.8034752883808451 25.4345842324303675   T   T   T
  5.1649460306497730 13.7555725044975823 26.2531374474345185   T   T   T
  2.2135609271061281 24.0678847788636574 26.6849328292760717   T   T   T
 11.8056286801182999 13.4911629982288268 25.0027887759396776   T   T   T
  6.6406827818008587 24.0678847788922887 26.6849328294114727   T   T   T
  7.3785068252548918 13.4911630296670211 25.0027889246056851   T   T   T
  4.4271218543952005 23.8034752883474141 25.4345842322722611   T   T   T
  9.5920676205050714 13.7555725044259489 26.2531374470957601   T   T   T
  4.4271218545117854 24.3322942694085391 27.9352814264152869   T   T   T
  9.5920678849414838 14.2843914855252709 28.7538346414194343   T   T   T
  6.6406827813978291 24.5967037598913407 29.1856300232609911   T   T   T
  7.3785068258999624 14.0199819792565119 27.5034859699245970   T   T   T
  2.2135609275825203 24.5967037599199756 29.1856300233963957   T   T   T
 11.8056286795465937 14.0199820106947080 27.5034861185906081   T   T   T
  8.8542437086869050 24.3322942693750974 27.9352814262571840   T   T   T
  5.1649457662867384 14.2843914854536340 28.7538346410806831   T   T   T
  4.4271218545117828 12.5069122760253126 30.4359786204002063   T   T   T
  5.1649460307231347 14.8132104665529560 31.2545318354043538   T   T   T
  6.6406827813978335 12.7713217665081213 31.6863272172459105   T   T   T
 11.8056286801916617 14.5488009602841952 30.0041831639095165   T   T   T
 11.0678046360925606 12.7713217665367544 31.6863272173813151   T   T   T
  7.3785068253282562 14.5488009917223913 30.0041833125755275   T   T   T
  8.8542437086868997 12.5069122759918780 30.4359786202420963   T   T   T
  9.5920676205784332 14.8132104664813209 31.2545318350655954   T   T   T
  8.8542437088034873 13.0357312570529977 32.9366758143851257   T   T   T
  9.5920678850148473 15.3420294475806411 33.7552290293892767   T   T   T
 11.0678046356895354 13.3001407475358082 34.1870244112308299   T   T   T
  7.3785068259733304 15.0776199413118821 32.5048803578944359   T   T   T
  6.6406827818742276 13.3001407475644413 34.1870244113662380   T   T   T
 11.8056286796199590 15.0776199727500781 32.5048805065604398   T   T   T
  4.4271218544685711 13.0357312570195649 32.9366758142270157   T   T   T
  5.1649457663600984 15.3420294475090024 33.7552290290505255   T   T   T
  4.4271218545851445 13.5645502380806846 35.4373730083700451   T   T   T
  5.1649460307965036 15.8708484286083245 36.2559262233741890   T   T   T
  6.6406827814712024 13.8289597285634915 36.6877216052157493   T   T   T
 11.8056286802650270 15.6064389223395672 35.0055775518793482   T   T   T
 11.0678046361659241 13.8289597285921246 36.6877216053511575   T   T   T
  7.3785068254016233 15.6064389537777650 35.0055777005453592   T   T   T
  8.8542437087602686 13.5645502380472500 35.4373730082119351   T   T   T
  9.5920676206518021 15.8708484285366893 36.2559262230354378   T   T   T
  8.8542437088768509 14.0933692191083679 37.9380702023549574   T   T   T
  9.5920678850882037 16.3996674096360096 38.7566234173591084   T   T   T
 11.0678046357629007 14.3577787095911802 39.1884187992006616   T   T   T
  7.3785068260466842 16.1352579033672541 37.5062747458642676   T   T   T
  6.6406827819475822 14.3577787096198097 39.1884187993360698   T   T   T
 11.8056286796933190 16.1352579348054483 37.5062748945302786   T   T   T
  4.4271218545419275 14.0933692190749333 37.9380702021968546   T   T   T
  5.1649457664334673 16.3996674095643762 38.7566234170203501   T   T   T
  4.4271218543650583 34.0424003386810128 15.4317954564906916   F   F   F
 -3.6892976779336282 36.3486985292086544 16.2503486714948409   F   F   F
 -2.2135609272589392 34.3068098291638250 16.6821440533363941   F   F   F
  2.9513849715348925 36.0842890229398989 15.0000000000000000   F   F   F
  2.2135609274357919 34.3068098291924528 16.6821440534717986   F   F   F
 -1.4757368833285121 36.0842890543780896 15.0000001486660093   F   F   F
  0.0000000000301353 34.0424003386475817 15.4317954563325852   F   F   F